\ENCODING=ISO-8859-1
\Problem name: 

Minimize
 obj1: x73 + x74 + x75 + x76 + x77 + x78 + x79 + x80 - 1
Subject To
 x81:  x17 + x41 + x65  = 3
 x82:  x2 - x3 + x10 - x11  = 0
 x83:  x4 - x5 + x12 - x13  = 0
 x84:  x6 - x7 + x14 - x15  = 0
 x85:  x26 - x27 + x34 - x35  = 0
 x86:  x28 - x29 + x36 - x37  = 0
 x87:  x30 - x31 + x38 - x39  = 0
 x88:  x50 - x51 + x58 - x59  = 0
 x89:  x52 - x53 + x60 - x61  = 0
 x90:  x54 - x55 + x62 - x63  = 0
 x91:  x42 + x66 <= 1
 x92:  x43 + x67 <= 1
 x93:  x44 + x68 <= 1
 x94:  x45 + x69 <= 1
 x95:  x46 + x70 <= 1
 x96:  x47 + x71 <= 1
 x97:  x48 + x72 <= 1
 x98:  x18 + x66 <= 1
 x99:  x19 + x67 <= 1
 x100: x20 + x68 <= 1
 x101: x21 + x69 <= 1
 x102: x22 + x70 <= 1
 x103: x23 + x71 <= 1
 x104: x24 + x72 <= 1
 x105: x33 + x57 + x73 <= 2
 x106: x34 + x58 + x74 <= 2
 x107: x35 + x59 + x75 <= 2
 x108: x36 + x60 + x76 <= 2
 x109: x37 + x61 + x77 <= 2
 x110: x38 + x62 + x78 <= 2
 x111: x39 + x63 + x79 <= 2
 x112: x40 + x64 + x80 <= 2
 x113: x9 + x57 + x73 <= 2
 x114: x10 + x58 + x74 <= 2
 x115: x11 + x59 + x75 <= 2
 x116: x12 + x60 + x76 <= 2
 x117: x13 + x61 + x77 <= 2
 x118: x14 + x62 + x78 <= 2
 x119: x15 + x63 + x79 <= 2
 x120: x16 + x64 + x80 <= 2
 x121: x8 + x16 + x32 + x40 + x56 + x64  = 3
 x122: x73  = 1
 x123: x1 + x9 + x17  = 1
 x124: x2 + x10 + x18  = 1
 x125: x3 + x11 + x19  = 1
 x126: x4 + x12 + x20  = 1
 x127: x5 + x13 + x21  = 1
 x128: x6 + x14 + x22  = 1
 x129: x7 + x15 + x23  = 1
 x130: x8 + x16 + x24  = 1
 x131: x25 + x33 + x41  = 1
 x132: x26 + x34 + x42  = 1
 x133: x27 + x35 + x43  = 1
 x134: x28 + x36 + x44  = 1
 x135: x29 + x37 + x45  = 1
 x136: x30 + x38 + x46  = 1
 x137: x31 + x39 + x47  = 1
 x138: x32 + x40 + x48  = 1
 x139: x49 + x57 + x65  = 1
 x140: x50 + x58 + x66  = 1
 x141: x51 + x59 + x67  = 1
 x142: x52 + x60 + x68  = 1
 x143: x53 + x61 + x69  = 1
 x144: x54 + x62 + x70  = 1
 x145: x55 + x63 + x71  = 1
 x146: x56 + x64 + x72  = 1
 x147: - x73 + x74 <= 0
 x148: - x74 + x75 <= 0
 x149: - x75 + x76 <= 0
 x150: - x76 + x77 <= 0
 x151: - x77 + x78 <= 0
 x152: - x78 + x79 <= 0
 x153: - x79 + x80 <= 0
 x154: - x1 - x17 - x25 - x41 - x49 - x65 + x73 <= 0
 x155: - x2 - x18 - x26 - x42 - x50 - x66 + x74 <= 0
 x156: - x3 - x19 - x27 - x43 - x51 - x67 + x75 <= 0
 x157: - x4 - x20 - x28 - x44 - x52 - x68 + x76 <= 0
 x158: - x5 - x21 - x29 - x45 - x53 - x69 + x77 <= 0
 x159: - x6 - x22 - x30 - x46 - x54 - x70 + x78 <= 0
 x160: - x7 - x23 - x31 - x47 - x55 - x71 + x79 <= 0
 x161: - x8 - x24 - x32 - x48 - x56 - x72 + x80 <= 0
 x162: x1 + x17 + x25 + x41 + x49 + x65 - 3 x73 <= 0
 x163: x2 + x18 + x26 + x42 + x50 + x66 - 3 x74 <= 0
 x164: x3 + x19 + x27 + x43 + x51 + x67 - 3 x75 <= 0
 x165: x4 + x20 + x28 + x44 + x52 + x68 - 3 x76 <= 0
 x166: x5 + x21 + x29 + x45 + x53 + x69 - 3 x77 <= 0
 x167: x6 + x22 + x30 + x46 + x54 + x70 - 3 x78 <= 0
 x168: x7 + x23 + x31 + x47 + x55 + x71 - 3 x79 <= 0
 x169: x8 + x24 + x32 + x48 + x56 + x72 - 3 x80 <= 0
 x170: x1 + x25 + x49 - x73 <= 0
 x171: x2 + x26 + x50 - x74 <= 0
 x172: x3 + x27 + x51 - x75 <= 0
 x173: x4 + x28 + x52 - x76 <= 0
 x174: x5 + x29 + x53 - x77 <= 0
 x175: x6 + x30 + x54 - x78 <= 0
 x176: x7 + x31 + x55 - x79 <= 0
 x177: x8 + x32 + x56 - x80 <= 0
 x178: x1 - x2 + x17 - x18  = 0
 x179: x3 - x4 + x19 - x20  = 0
 x180: x5 - x6 + x21 - x22  = 0
 x181: x7 - x8 + x23 - x24  = 0
 x182: x25 - x26 + x41 - x42  = 0
 x183: x27 - x28 + x43 - x44  = 0
 x184: x29 - x30 + x45 - x46  = 0
 x185: x31 - x32 + x47 - x48  = 0
 x186: x49 - x50 + x65 - x66  = 0
 x187: x51 - x52 + x67 - x68  = 0
 x188: x53 - x54 + x69 - x70  = 0
 x189: x55 - x56 + x71 - x72  = 0
Bounds
 0 <= x1 <= 1
 0 <= x2 <= 1
 0 <= x3 <= 1
 0 <= x4 <= 1
 0 <= x5 <= 1
 0 <= x6 <= 1
 0 <= x7 <= 1
 0 <= x8 <= 1
 0 <= x9 <= 1
 0 <= x10 <= 1
 0 <= x11 <= 1
 0 <= x12 <= 1
 0 <= x13 <= 1
 0 <= x14 <= 1
 0 <= x15 <= 1
 0 <= x16 <= 1
 0 <= x17 <= 1
 0 <= x18 <= 1
 0 <= x19 <= 1
 0 <= x20 <= 1
 0 <= x21 <= 1
 0 <= x22 <= 1
 0 <= x23 <= 1
 0 <= x24 <= 1
 0 <= x25 <= 1
 0 <= x26 <= 1
 0 <= x27 <= 1
 0 <= x28 <= 1
 0 <= x29 <= 1
 0 <= x30 <= 1
 0 <= x31 <= 1
 0 <= x32 <= 1
 0 <= x33 <= 1
 0 <= x34 <= 1
 0 <= x35 <= 1
 0 <= x36 <= 1
 0 <= x37 <= 1
 0 <= x38 <= 1
 0 <= x39 <= 1
 0 <= x40 <= 1
 0 <= x41 <= 1
 0 <= x42 <= 1
 0 <= x43 <= 1
 0 <= x44 <= 1
 0 <= x45 <= 1
 0 <= x46 <= 1
 0 <= x47 <= 1
 0 <= x48 <= 1
 0 <= x49 <= 1
 0 <= x50 <= 1
 0 <= x51 <= 1
 0 <= x52 <= 1
 0 <= x53 <= 1
 0 <= x54 <= 1
 0 <= x55 <= 1
 0 <= x56 <= 1
 0 <= x57 <= 1
 0 <= x58 <= 1
 0 <= x59 <= 1
 0 <= x60 <= 1
 0 <= x61 <= 1
 0 <= x62 <= 1
 0 <= x63 <= 1
 0 <= x64 <= 1
 0 <= x65 <= 1
 0 <= x66 <= 1
 0 <= x67 <= 1
 0 <= x68 <= 1
 0 <= x69 <= 1
 0 <= x70 <= 1
 0 <= x71 <= 1
 0 <= x72 <= 1
 0 <= x73 <= 1
 0 <= x74 <= 1
 0 <= x75 <= 1
 0 <= x76 <= 1
 0 <= x77 <= 1
 0 <= x78 <= 1
 0 <= x79 <= 1
 0 <= x80 <= 1
Binaries
 x1  x2  x3  x4  x5  x6  x7  x8  x9  x10  x11  x12  x13  x14  x15  x16  x17 
 x18  x19  x20  x21  x22  x23  x24  x25  x26  x27  x28  x29  x30  x31  x32 
 x33  x34  x35  x36  x37  x38  x39  x40  x41  x42  x43  x44  x45  x46  x47 
 x48  x49  x50  x51  x52  x53  x54  x55  x56  x57  x58  x59  x60  x61  x62 
 x63  x64  x65  x66  x67  x68  x69  x70  x71  x72  x73  x74  x75  x76  x77 
 x78  x79  x80 
End
